# 1 amount of Vehicles
param nv :=
5 ;

# 2 amount of Orders
param no :=
9 ;

# 3 amount of locations
param nl :=
6 ;

# 4 amount of factories
param nf :=
2 ;

# 5 factory sets
set N_f_2[1] :=  4 ;
set N_f_2[2] :=  5 6 ;

# 6 factory stop capacities
param H :=
1 1
2 2 ;

# 7 pickup locations for each order
param L_pd :=
1 3
2 1
3 2
4 3
5 3
6 2
7 1
8 1
9 3 ;

# 8 delivery locations for each order
param L_dd :=
1 5
2 4
3 6
4 4
5 4
6 5
7 4
8 5
9 6 ;

# 9 location sets
set L_2[1] :=  2 7 8 ;
set L_2[2] :=  3 6 ;
set L_2[3] :=  1 4 5 9 ;
set L_2[4] :=  2 4 5 7 ;
set L_2[5] :=  1 6 8 ;
set L_2[6] :=  3 9 ;

# 10 order weights
param Q_kg_2 :=
1 680.249747849357
2 719.7328905552844
3 653.6671660647602
4 336.7188056594942
5 255.4942637844638
6 650.7430941016265
7 1403.3569527315647
8 1872.9375771718794
9 5364.6054375054855 ;

# 11 order volumes
param Q_vol_2 :=
1 2.0659136366632493
2 2.7604020043287987
3 1.4816039060931843
4 3.63325990166796
5 1.0047526554587887
6 4.300947972679811
7 23.843202736135336
8 22.71715564431866
9 13.991169039286325 ;

# 12 Locations vehicle can visit
set N_v_2[1] := 1 3 4 5 6 ;
set N_v_2[2] := 1 3 4 5 6 ;
set N_v_2[3] := 1 2 3 4 5 6 ;
set N_v_2[4] := 1 2 3 4 5 6 ;
set N_v_2[5] := 1 2 3 4 5 6 ;

# 13 Orders vehicles can pick up
set N_vp_2[1] := 1 2 4 5 7 8 9 ;
set N_vp_2[2] := 1 2 4 5 7 8 9 ;
set N_vp_2[3] := 1 2 3 4 5 6 7 8 9 ;
set N_vp_2[4] := 1 2 3 4 5 6 7 8 9 ;
set N_vp_2[5] := 1 2 3 4 5 6 7 8 9 ;

# 14 vehicle weight capacity
param K_kg :=
1 12000.0
2 18000.0
3 24000.0
4 24000.0
5 24000.0 ;

# 15 vehicle volume capacity
param K_vol :=
1 55.0
2 71.0
3 102.0
4 102.0
5 102.0 ;

# 16 amount of distance intervals
param na :=
1 2
2 2
3 2
4 2
5 2 ;

# 17 amount of weight intervals
param nb :=
1 4
2 2
3 2
4 2
5 2 ;

# 18 Distance intervals
param B_2 :=
1 1 1500.0
1 2 9999999.0
2 1 1500.0
2 2 9999999.0
3 1 1500.0
3 2 9999999.0
4 1 1500.0
4 2 9999999.0
5 1 1500.0
5 2 9999999.0 ;

# 19 Weight intervals
param Z_2 :=
1 1 500.0
1 2 1500.0
1 3 5000.0
1 4 24000.0
2 1 1500.0
2 2 24000.0
2 3 . 
2 4 . 
3 1 1500.0
3 2 24000.0
3 3 . 
3 4 . 
4 1 1500.0
4 2 24000.0
4 3 . 
4 4 . 
5 1 1500.0
5 2 24000.0
5 3 . 
5 4 . ;

# 20 cost per kilometer
param C_km :=
1 1 1 0.07105957031249999
1 1 2 0.11574494469165798
1 1 3 0.19662278014636098
1 1 4 0.3723393221028571
1 2 1 0.047373046875000005
1 2 2 0.07716329646110535
1 2 3 0.13108185343090736
1 2 4 0.2482262147352381
2 1 1 0.13503576880693438
2 1 2 0.43439587578666683
2 1 3 . 
2 1 4 . 
2 2 1 0.08487962610721587
2 2 2 0.2730488362087619
2 2 3 . 
2 2 4 . 
3 1 1 0.1543265929222107
3 1 2 0.4964524294704762
3 1 3 . 
3 1 4 . 
3 2 1 0.09645412057638168
3 2 2 0.3102827684190475
3 2 3 . 
3 2 4 . 
4 1 1 0.1543265929222107
4 1 2 0.4964524294704762
4 1 3 . 
4 1 4 . 
4 2 1 0.09645412057638168
4 2 2 0.3102827684190475
4 2 3 . 
4 2 4 . 
5 1 1 0.1543265929222107
5 1 2 0.4964524294704762
5 1 3 . 
5 1 4 . 
5 2 1 0.09645412057638168
5 2 2 0.3102827684190475
5 2 3 . 
5 2 4 . ;

# 21 cost per kilo
param C_kg :=
1 1 1 0.008544921875000003
1 1 2 0.004564315080642704
1 1 3 0.0022787031026382486
1 1 4 8.114541859150757E-4
1 2 1 0.003417968750000001
1 2 2 0.0018257260322570804
1 2 3 9.114812410552988E-4
1 2 4 3.245816743660299E-4
2 1 1 0.004564315080642704
2 1 2 8.114541859150757E-4
2 1 3 . 
2 1 4 . 
2 2 1 0.0018257260322570804
2 2 2 3.245816743660299E-4
2 2 3 . 
2 2 4 . 
3 1 1 0.004564315080642704
3 1 2 8.114541859150757E-4
3 1 3 . 
3 1 4 . 
3 2 1 0.0018257260322570804
3 2 2 3.245816743660299E-4
3 2 3 . 
3 2 4 . 
4 1 1 0.004564315080642704
4 1 2 8.114541859150757E-4
4 1 3 . 
4 1 4 . 
4 2 1 0.0018257260322570804
4 2 2 3.245816743660299E-4
4 2 3 . 
4 2 4 . 
5 1 1 0.004564315080642704
5 1 2 8.114541859150757E-4
5 1 3 . 
5 1 4 . 
5 2 1 0.0018257260322570804
5 2 2 3.245816743660299E-4
5 2 3 . 
5 2 4 . ;

# 22 fixed costs
param C_fix :=
1 1 1 60.75
1 1 2 136.6875
1 1 3 293.625
1 1 4 764.94375
1 2 1 461.3203125
1 2 2 1037.970703125
1 2 3 2229.71484375
1 2 4 5808.7916015625
2 1 1 159.90504192000003
2 1 2 894.8759938560002
2 1 3 . 
2 1 4 . 
2 2 1 1477.3559627052468
2 2 2 8267.721702398621
2 2 3 . 
2 2 4 . 
3 1 1 195.31660031999994
3 1 2 1093.0495669759996
3 1 3 . 
3 1 4 . 
3 2 1 2317.1726648638028
3 2 2 12967.584802256317
3 2 3 . 
3 2 4 . 
4 1 1 195.31660031999994
4 1 2 1093.0495669759996
4 1 3 . 
4 1 4 . 
4 2 1 2317.1726648638028
4 2 2 12967.584802256317
4 2 3 . 
4 2 4 . 
5 1 1 195.31660031999994
5 1 2 1093.0495669759996
5 1 3 . 
5 1 4 . 
5 2 1 2317.1726648638028
5 2 2 12967.584802256317
5 2 3 . 
5 2 4 . ;

# 23 stopping costs
param C_stop_2 :=
1 1 30.0
1 2 28.0
1 3 30.0
1 4 24.0
1 5 21.0
1 6 26.0
2 1 45.0
2 2 42.0
2 3 45.0
2 4 36.0
2 5 31.5
2 6 39.0
3 1 60.0
3 2 56.0
3 3 60.0
3 4 48.0
3 5 42.0
3 6 52.0
4 1 60.0
4 2 56.0
4 3 60.0
4 4 48.0
4 5 42.0
4 6 52.0
5 1 60.0
5 2 56.0
5 3 60.0
5 4 48.0
5 5 42.0
5 6 52.0 ;

# 24 cost of no transport
param C_2 :=
1 41873.67927848202
2 34921.80181993118
3 40003.41636691498
4 29583.23714826661
5 26142.484483307133
6 42658.416888318774
7 62840.843173500514
8 72271.91824515353
9 100702.4903461723 ;

# 25 timewindow amounts at location
param pi_2 :=
1 3
2 3
3 3
4 4
5 3
6 3 ;

# 26 timewindow lower bounds
param T_l_2 :=
1 1 0.0
1 2 1440.0
1 3 2880.0
1 4 . 
2 1 0.0
2 2 360.0
2 3 1440.0
2 4 . 
3 1 120.0
3 2 540.0
3 3 1560.0
3 4 . 
4 1 60.0
4 2 1500.0
4 3 2940.0
4 4 4380.0
5 1 0.0
5 2 1440.0
5 3 2880.0
5 4 . 
6 1 120.0
6 2 420.0
6 3 1560.0
6 4 . ;

# 27 timewindow upper bounds
param T_u_2 :=
1 1 240.0
1 2 1680.0
1 3 3120.0
1 4 . 
2 1 300.0
2 2 600.0
2 3 1740.0
2 4 . 
3 1 420.0
3 2 840.0
3 3 1860.0
3 4 . 
4 1 240.0
4 2 1740.0
4 3 3180.0
4 4 4620.0
5 1 300.0
5 2 1680.0
5 3 3120.0
5 4 . 
6 1 300.0
6 2 660.0
6 3 1740.0
6 4 . ;

# 28 Travel time
param T_2 :=
1 1 1 . 
1 1 2 . 
1 1 3 78.24956747275377
1 1 4 96.73451516749222
1 1 5 224.42311381860142
1 1 6 192.646062785769
1 2 1 . 
1 2 2 . 
1 2 3 . 
1 2 4 . 
1 2 5 . 
1 2 6 . 
1 3 1 78.24956747275377
1 3 2 . 
1 3 3 . 
1 3 4 55.04648650006176
1 3 5 297.7544693887533
1 3 6 219.75444886385216
1 4 1 96.73451516749222
1 4 2 . 
1 4 3 55.04648650006176
1 4 4 . 
1 4 5 238.07742936058185
1 4 6 225.3968716025165
1 5 1 224.42311381860142
1 5 2 . 
1 5 3 297.7544693887533
1 5 4 238.07742936058185
1 5 5 . 
1 5 6 2.549509756796392
1 6 1 192.646062785769
1 6 2 . 
1 6 3 219.75444886385216
1 6 4 225.3968716025165
1 6 5 2.549509756796392
1 6 6 . 
2 1 1 . 
2 1 2 . 
2 1 3 80.2058066595726
2 1 4 99.15287804667952
2 1 5 230.03369166406642
2 1 6 197.4622143554132
2 2 1 . 
2 2 2 . 
2 2 3 . 
2 2 4 . 
2 2 5 . 
2 2 6 . 
2 3 1 80.2058066595726
2 3 2 . 
2 3 3 . 
2 3 4 56.4226486625633
2 3 5 305.1983311234721
2 3 6 225.24831008544845
2 4 1 99.15287804667952
2 4 2 . 
2 4 3 56.4226486625633
2 4 4 . 
2 4 5 244.02936509459636
2 4 6 231.0317933925794
2 5 1 230.03369166406642
2 5 2 . 
2 5 3 305.1983311234721
2 5 4 244.02936509459636
2 5 5 . 
2 5 6 2.613247500716301
2 6 1 197.4622143554132
2 6 2 . 
2 6 3 225.24831008544845
2 6 4 231.0317933925794
2 6 5 2.613247500716301
2 6 6 . 
3 1 1 . 
3 1 2 447.14966643512065
3 1 3 80.2058066595726
3 1 4 99.15287804667952
3 1 5 230.03369166406642
3 1 6 197.4622143554132
3 2 1 447.14966643512065
3 2 2 . 
3 2 3 421.8606460524489
3 2 4 289.6650777693363
3 2 5 235.2381487331377
3 2 6 228.32115533630903
3 3 1 80.2058066595726
3 3 2 421.8606460524489
3 3 3 . 
3 3 4 56.4226486625633
3 3 5 305.1983311234721
3 3 6 225.24831008544845
3 4 1 99.15287804667952
3 4 2 289.6650777693363
3 4 3 56.4226486625633
3 4 4 . 
3 4 5 244.02936509459636
3 4 6 231.0317933925794
3 5 1 230.03369166406642
3 5 2 235.2381487331377
3 5 3 305.1983311234721
3 5 4 244.02936509459636
3 5 5 . 
3 5 6 2.613247500716301
3 6 1 197.4622143554132
3 6 2 228.32115533630903
3 6 3 225.24831008544845
3 6 4 231.0317933925794
3 6 5 2.613247500716301
3 6 6 . 
4 1 1 . 
4 1 2 458.0557558603675
4 1 3 82.16204584639146
4 1 4 101.57124092586683
4 1 5 235.6442695095315
4 1 6 202.27836592505747
4 2 1 458.0557558603675
4 2 2 . 
4 2 3 432.1499301025087
4 2 4 296.73007966614944
4 2 5 240.9756645558972
4 2 6 233.8899640030483
4 3 1 82.16204584639146
4 3 2 432.1499301025087
4 3 3 . 
4 3 4 57.79881082506485
4 3 5 312.642192858191
4 3 6 230.74217130704477
4 4 1 101.57124092586683
4 4 2 296.73007966614944
4 4 3 57.79881082506485
4 4 4 . 
4 4 5 249.98130082861096
4 4 6 236.66671518264235
4 5 1 235.6442695095315
4 5 2 240.9756645558972
4 5 3 312.642192858191
4 5 4 249.98130082861096
4 5 5 . 
4 5 6 2.6769852446362115
4 6 1 202.27836592505747
4 6 2 233.8899640030483
4 6 3 230.74217130704477
4 6 4 236.66671518264235
4 6 5 2.6769852446362115
4 6 6 . 
5 1 1 . 
5 1 2 458.0557558603675
5 1 3 82.16204584639146
5 1 4 101.57124092586683
5 1 5 235.6442695095315
5 1 6 202.27836592505747
5 2 1 458.0557558603675
5 2 2 . 
5 2 3 432.1499301025087
5 2 4 296.73007966614944
5 2 5 240.9756645558972
5 2 6 233.8899640030483
5 3 1 82.16204584639146
5 3 2 432.1499301025087
5 3 3 . 
5 3 4 57.79881082506485
5 3 5 312.642192858191
5 3 6 230.74217130704477
5 4 1 101.57124092586683
5 4 2 296.73007966614944
5 4 3 57.79881082506485
5 4 4 . 
5 4 5 249.98130082861096
5 4 6 236.66671518264235
5 5 1 235.6442695095315
5 5 2 240.9756645558972
5 5 3 312.642192858191
5 5 4 249.98130082861096
5 5 5 . 
5 5 6 2.6769852446362115
5 6 1 202.27836592505747
5 6 2 233.8899640030483
5 6 3 230.74217130704477
5 6 4 236.66671518264235
5 6 5 2.6769852446362115
5 6 6 . ;

# 29 Travel distance
param D_2 :=
1 1 . 
1 2 632.4871540197477
1 3 144.49913494550754
1 4 165.46903033498444
1 5 360.84622763720284
1 6 361.292125571538
2 1 632.4871540197477
2 2 . 
2 3 613.1427240047785
2 4 527.2001517450465
2 5 395.0012658207566
2 6 399.50469333913964
3 1 144.49913494550754
3 2 613.1427240047785
3 3 . 
3 4 86.09297300012354
3 5 433.5089387775066
3 6 435.5088977277043
4 1 165.46903033498444
4 2 527.2001517450465
4 3 86.09297300012354
4 4 . 
4 5 368.1548587211637
4 6 370.7937432050331
5 1 360.84622763720284
5 2 395.0012658207566
5 3 433.5089387775066
5 4 368.1548587211637
5 5 . 
5 6 5.0990195135927845
6 1 361.292125571538
6 2 399.50469333913964
6 3 435.5088977277043
6 4 370.7937432050331
6 5 5.0990195135927845
6 6 . ;

